p tw 44 75
5 19
5 10
10 20
1 13
1 6
1 14
2 19
2 41
2 12
2 3
2 14
12 14
12 18
8 12
8 13
4 8
4 20
4 12
4 11
15 17
42 43
42 44
24 27
24 32
25 31
25 33
21 44
21 37
21 36
21 39
21 24
33 40
33 38
28 38
13 15
41 43
41 44
17 18
17 20
34 40
22 23
22 34
22 32
22 29
22 35
27 34
27 31
27 39
27 37
27 42
27 35
7 43
7 11
7 9
7 18
7 14
39 43
3 14
3 16
3 5
35 37
16 17
31 41
31 34
31 36
11 14
11 44
11 19
26 36
26 38
23 30
23 25
23 39
30 38
19 42
